;test regex ^(([A-Za-z0-9']+_+)|([A-Za-z0-9']+\-+)|([A-Za-z0-9']+\.+)|([A-Za-z0-9']+\++))*[A-Za-z0-9']+@((\w+\-+)|(\w+\.))*\w{1,63}\.[a-zA-Z]{2,6}$
(declare-const X String)
(assert (str.in_re X (re.++ (re.++ (str.to_re "") (re.++ (re.* (re.union (re.union (re.union (re.++ (re.+ (re.union (re.range "A" "Z") (re.union (re.range "a" "z") (re.union (re.range "0" "9") (str.to_re "\u{27}"))))) (re.+ (str.to_re "_"))) (re.++ (re.+ (re.union (re.range "A" "Z") (re.union (re.range "a" "z") (re.union (re.range "0" "9") (str.to_re "\u{27}"))))) (re.+ (str.to_re "-")))) (re.++ (re.+ (re.union (re.range "A" "Z") (re.union (re.range "a" "z") (re.union (re.range "0" "9") (str.to_re "\u{27}"))))) (re.+ (str.to_re ".")))) (re.++ (re.+ (re.union (re.range "A" "Z") (re.union (re.range "a" "z") (re.union (re.range "0" "9") (str.to_re "\u{27}"))))) (re.+ (str.to_re "+"))))) (re.++ (re.+ (re.union (re.range "A" "Z") (re.union (re.range "a" "z") (re.union (re.range "0" "9") (str.to_re "\u{27}"))))) (re.++ (str.to_re "@") (re.++ (re.* (re.union (re.++ (re.+ (re.union (re.range "a" "z") (re.union (re.range "A" "Z") (re.union (re.range "0" "9") (str.to_re "_"))))) (re.+ (str.to_re "-"))) (re.++ (re.+ (re.union (re.range "a" "z") (re.union (re.range "A" "Z") (re.union (re.range "0" "9") (str.to_re "_"))))) (str.to_re ".")))) (re.++ ((_ re.loop 1 63) (re.union (re.range "a" "z") (re.union (re.range "A" "Z") (re.union (re.range "0" "9") (str.to_re "_"))))) (re.++ (str.to_re ".") ((_ re.loop 2 6) (re.union (re.range "a" "z") (re.range "A" "Z")))))))))) (str.to_re ""))))
; sanitize danger characters:  < > ' " &
(assert (not (str.in_re X (re.++ re.all (re.union (str.to_re "\u{3c}") (str.to_re "\u{3e}") (str.to_re "\u{27}") (str.to_re "\u{22}") (str.to_re "\u{26}")) re.all))))
(assert (< 50 (str.len X)))
(check-sat)
(get-model)